p edge 25 31
e 1 11
e 1 14
e 2 8
e 2 15
e 2 22
e 3 11
e 3 13
e 4 5
e 4 14
e 4 23
e 5 10
e 5 13
e 5 16
e 5 19
e 7 15
e 7 21
e 8 11
e 9 12
e 11 16
e 11 18
e 11 19
e 11 23
e 12 17
e 12 20
e 12 23
e 13 14
e 14 21
e 14 22
e 14 23
e 17 21
e 19 24
